\ LP format - for model browsing. Use MPS format to capture full model detail.
Maximize
  - 6.0 d - 10.0 h
Subject To
 R0: 1.0 d + 1.0 h <= 150.0
 R1: - 1.0 d + 0.0 h <= -10.0
 R2: 0.7 d - 0.3 h <= 0.0
Generals
 h d
End
